10
1 0 10
2 0 9
2 1 5
3 0 11
3 1 2
3 2 6
4 0 8
4 1 1
4 2 12
4 3 3
5 0 6
5 1 12
5 2 7
5 3 11
5 4 7
6 0 6
6 1 10
6 2 10
6 3 12
6 4 12
6 5 6
7 0 2
7 1 10
7 2 6
7 3 11
7 4 3
7 5 7
7 6 7
8 0 7
8 1 8
8 2 9
8 3 2
8 4 1
8 5 7
8 6 6
8 7 3
9 0 9
9 1 5
9 2 9
9 3 10
9 4 3
9 5 4
9 6 12
9 7 12
9 8 12
